146 36 116 43 151 57 160 124 108 60 184 93 180 
146 36 116 43 151 57 160 108 60 184 93 180 
36 146 116 43 151 57 160 124 108 60 93 180 
116 146 36 43 151 57 160 124 108 60 184 93 180 
43 146 36 116 151 57 124 108 60 184 93 180 
151 146 36 116 43 57 160 124 108 60 184 93 180 
57 146 36 116 43 151 160 124 108 60 184 93 180 
160 146 36 116 151 57 124 108 60 184 93 180 
124 36 116 43 151 57 160 108 60 184 93 180 
108 146 36 116 43 151 57 160 124 60 184 93 180 
60 146 36 116 43 151 57 160 124 108 184 93 
184 146 116 43 151 57 160 124 108 60 93 180 
93 146 36 116 43 151 57 160 124 108 60 184 180 
180 146 36 116 43 151 57 160 124 108 184 93 
total no. of edges: 148

146 36 116 43 151 57 160 124 108 60 184 93 180 
146 36 116 43 151 57 160 108 60 184 93 180 
36 146 116 43 151 57 160 124 108 60 93 180 
116 146 36 43 151 57 160 124 108 60 184 93 180 
43 146 36 116 151 57 124 108 60 184 93 180 
151 146 36 116 43 57 160 124 108 60 184 93 180 
57 146 36 116 43 151 160 124 108 60 184 93 180 
160 146 36 116 151 57 124 108 60 184 93 180 
124 36 116 43 151 57 160 108 60 184 93 180 
108 146 36 116 43 151 57 160 124 60 184 93 180 
60 146 36 116 43 151 57 160 124 108 184 93 
184 146 116 43 151 57 160 124 108 60 93 180 
93 146 36 116 43 151 57 160 124 108 60 184 180 
180 146 36 116 43 151 57 160 124 108 184 93 
total no. of edges: 148

